set V := 1 2 3 4 5 6 7 8 9 10 11 12 13 14 15;

set E :=
   1 2, 1 5, 2 3, 2 6, 3 4, 3 8, 4 9, 5 6, 5 7, 6 8, 7 8, 7 12, 8 9,
   8 12, 9 10, 9 14, 10 11, 10 14, 11 15, 12 13, 13 14, 14 15;

param W :=
	[1,2] 1
	[1,5] 1
	[2,3] 1
	[2,6] 1
	[3,4] 1
	[3,8] 1
	[4,9] 1
	[5,6] 1
	[5,7] 1
	[6,8] 1
	[7,8] 1
	[7,12] 1
	[8,9] 1
	[8,12] 1
	[9,10] 1
	[9,14] 1
	[10,11] 1
	[10,14] 1
	[11,15] 1
	[12,13] 1
	[13,14] 1
	[14,15] 1;

